\ Equation counts
\     Total        E        G        L        N        X        C        B
\	344	344	0	0
\
\ Variable counts
\                  x        b        i      s1s      s2s       sc       si
\     Total     cont   binary  integer     sos1     sos2    scont     sint
\	40	40

\ Nonzero counts
\     Total    const       NL      DLL
\
\
Minimize
 obj: [ + 3.5 x_1 * x_1 + 22.0 x_1 * x_2 + 22.0 x_1 * x_4 + 23.5 x_1 * x_5 - 12.5 x_1 * x_7 - 12.0 x_1 * x_8 - 13.0 x_1 * x_9 + 18.0 x_1 * x_10 - 20.0 x_1 * x_11 - 1.5 x_1 * x_13 + 9.0 x_1 * x_19 + 18.5 x_1 * x_20 - 8.5 x_1 * x_24 - 5.5 x_1 * x_26 + 3.0 x_1 * x_28 - 6.5 x_1 * x_29 - 1.0 x_1 * x_31 - 3.0 x_1 * x_33 + 8.0 x_1 * x_35 + 2.5 x_1 * x_39 - 23.5 x_1 * x_40 + 22.0 x_2 * x_1 - 6.5 x_2 * x_3 + 6.5 x_2 * x_4 + 20.5 x_2 * x_6 + 6.5 x_2 * x_7 + 10.5 x_2 * x_9 - 16.0 x_2 * x_10 + 10.5 x_2 * x_12 + 6.0 x_2 * x_13 - 18.0 x_2 * x_14 + 20.5 x_2 * x_15 - 7.0 x_2 * x_16 + 21.0 x_2 * x_22 - 0.5 x_2 * x_24 + 7.5 x_2 * x_25 + 11.5 x_2 * x_26 + 16.0 x_2 * x_27 + 21.0 x_2 * x_29 - 21.0 x_2 * x_30 - 19.5 x_2 * x_32 - 10.5 x_2 * x_33 - 15.5 x_2 * x_35 + 18.5 x_2 * x_36 + 5.0 x_2 * x_37 + 23.0 x_2 * x_40 - 6.5 x_3 * x_2 + 12.0 x_3 * x_3 + 21.0 x_3 * x_6 + 11.5 x_3 * x_7 - 3.5 x_3 * x_10 + 14.5 x_3 * x_15 + 14.0 x_3 * x_16 + 1.5 x_3 * x_18 + 1.5 x_3 * x_19 + 13.5 x_3 * x_21 + 6.0 x_3 * x_24 + 17.5 x_3 * x_26 - 17.5 x_3 * x_27 + 4.0 x_3 * x_30 - 20.0 x_3 * x_33 + 24.5 x_3 * x_34 + 2.0 x_3 * x_35 + 23.5 x_3 * x_37 + 5.5 x_3 * x_38 - 3.5 x_3 * x_40 + 22.0 x_4 * x_1 + 6.5 x_4 * x_2 + 13.5 x_4 * x_4 + 1.0 x_4 * x_5 - 1.5 x_4 * x_7 + 4.5 x_4 * x_8 - 1.0 x_4 * x_11 + 13.0 x_4 * x_13 - 7.5 x_4 * x_15 - 0.5 x_4 * x_18 - 3.5 x_4 * x_21 + 4.0 x_4 * x_22 + 8.0 x_4 * x_24 + 14.0 x_4 * x_27 - 19.0 x_4 * x_28 - 13.0 x_4 * x_29 - 7.5 x_4 * x_30 + 1.0 x_4 * x_31 - 7.0 x_4 * x_32 + 9.0 x_4 * x_33 - 13.5 x_4 * x_34 + 24.0 x_4 * x_35 - 23.0 x_4 * x_37 - 21.5 x_4 * x_39 - 11.5 x_4 * x_40 + 23.5 x_5 * x_1 + 1.0 x_5 * x_4 - 21.0 x_5 * x_11 - 20.5 x_5 * x_12 + 21.0 x_5 * x_14 - 20.0 x_5 * x_19 - 23.5 x_5 * x_20 + 12.5 x_5 * x_21 - 1.5 x_5 * x_23 - 7.0 x_5 * x_24 + 2.5 x_5 * x_27 - 20.5 x_5 * x_31 - 19.5 x_5 * x_32 + 23.5 x_5 * x_36 + 16.0 x_5 * x_38 - 3.5 x_5 * x_39 + 20.5 x_6 * x_2 + 21.0 x_6 * x_3 - 5.0 x_6 * x_6 + 8.0 x_6 * x_8 - 1.5 x_6 * x_11 + 5.0 x_6 * x_12 - 20.5 x_6 * x_14 - 17.0 x_6 * x_17 - 14.5 x_6 * x_18 + 5.5 x_6 * x_19 + 8.5 x_6 * x_20 - 19.0 x_6 * x_22 + 4.0 x_6 * x_23 - 2.5 x_6 * x_24 - 4.0 x_6 * x_25 + 19.5 x_6 * x_26 + 2.5 x_6 * x_28 + 21.0 x_6 * x_30 - 19.0 x_6 * x_31 + 2.0 x_6 * x_37 - 17.5 x_6 * x_38 - 15.5 x_6 * x_39 + 18.0 x_6 * x_40 - 12.5 x_7 * x_1 + 6.5 x_7 * x_2 + 11.5 x_7 * x_3 - 1.5 x_7 * x_4 + 5.0 x_7 * x_8 - 23.0 x_7 * x_9 - 12.5 x_7 * x_11 + 24.0 x_7 * x_12 - 6.0 x_7 * x_16 - 23.0 x_7 * x_18 + 14.0 x_7 * x_19 + 20.5 x_7 * x_20 - 4.0 x_7 * x_24 - 19.0 x_7 * x_25 - 12.5 x_7 * x_33 + 19.0 x_7 * x_37 - 6.5 x_7 * x_38 + 6.5 x_7 * x_40 - 12.0 x_8 * x_1 + 4.5 x_8 * x_4 + 8.0 x_8 * x_6 + 5.0 x_8 * x_7 + 14.0 x_8 * x_11 - 16.0 x_8 * x_12 - 23.0 x_8 * x_14 - 18.0 x_8 * x_15 - 15.0 x_8 * x_16 + 18.0 x_8 * x_21 - 20.5 x_8 * x_22 + 1.5 x_8 * x_25 - 13.5 x_8 * x_26 + 22.5 x_8 * x_27 - 24.5 x_8 * x_28 - 17.5 x_8 * x_31 - 10.0 x_8 * x_34 - 10.5 x_8 * x_36 + 15.0 x_8 * x_37 - 21.0 x_8 * x_38 - 15.0 x_8 * x_39 + 6.5 x_8 * x_40 - 13.0 x_9 * x_1 + 10.5 x_9 * x_2 - 23.0 x_9 * x_7 + 23.0 x_9 * x_9 - 2.0 x_9 * x_10 + 18.5 x_9 * x_11 - 23.5 x_9 * x_17 - 24.5 x_9 * x_18 + 8.0 x_9 * x_19 + 12.5 x_9 * x_20 + 3.5 x_9 * x_22 + 19.0 x_9 * x_24 + 18.5 x_9 * x_25 + 11.5 x_9 * x_26 + 22.5 x_9 * x_27 - 19.0 x_9 * x_29 - 7.5 x_9 * x_33 + 17.0 x_9 * x_36 + 11.0 x_9 * x_37 + 9.0 x_9 * x_38 + 2.5 x_9 * x_39 - 15.5 x_9 * x_40 + 18.0 x_10 * x_1 - 16.0 x_10 * x_2 - 3.5 x_10 * x_3 - 2.0 x_10 * x_9 - 24.0 x_10 * x_11 - 3.5 x_10 * x_12 + 6.5 x_10 * x_13 + 4.5 x_10 * x_15 + 0.5 x_10 * x_16 - 14.0 x_10 * x_19 - 4.5 x_10 * x_20 - 10.5 x_10 * x_21 - 18.0 x_10 * x_23 + 10.5 x_10 * x_25 - 4.5 x_10 * x_27 - 2.0 x_10 * x_30 - 24.0 x_10 * x_31 + 5.5 x_10 * x_32 + 12.5 x_10 * x_33 - 13.5 x_10 * x_34 - 10.5 x_10 * x_36 - 16.0 x_10 * x_38 + 22.0 x_10 * x_39 - 20.0 x_11 * x_1 - 1.0 x_11 * x_4 - 21.0 x_11 * x_5 - 1.5 x_11 * x_6 - 12.5 x_11 * x_7 + 14.0 x_11 * x_8 + 18.5 x_11 * x_9 - 24.0 x_11 * x_10 - 15.0 x_11 * x_15 - 1.5 x_11 * x_16 - 20.0 x_11 * x_21 + 7.0 x_11 * x_23 - 4.0 x_11 * x_25 + 14.5 x_11 * x_26 - 5.0 x_11 * x_32 + 2.0 x_11 * x_34 + 23.5 x_11 * x_40 + 10.5 x_12 * x_2 - 20.5 x_12 * x_5 + 5.0 x_12 * x_6 + 24.0 x_12 * x_7 - 16.0 x_12 * x_8 - 3.5 x_12 * x_10 - 4.5 x_12 * x_12 + 12.5 x_12 * x_16 - 18.5 x_12 * x_19 + 2.0 x_12 * x_21 + 10.0 x_12 * x_22 - 2.5 x_12 * x_23 - 13.0 x_12 * x_24 + 11.0 x_12 * x_25 + 24.5 x_12 * x_27 - 13.0 x_12 * x_28 + 11.5 x_12 * x_29 - 5.0 x_12 * x_31 - 1.5 x_12 * x_32 + 1.5 x_12 * x_34 + 24.5 x_12 * x_35 - 22.5 x_12 * x_36 - 21.5 x_12 * x_38 + 0.5 x_12 * x_39 + 5.5 x_12 * x_40 - 1.5 x_13 * x_1 + 6.0 x_13 * x_2 + 13.0 x_13 * x_4 + 6.5 x_13 * x_10 - 23.5 x_13 * x_16 - 8.0 x_13 * x_17 - 10.5 x_13 * x_19 - 3.5 x_13 * x_20 + 3.5 x_13 * x_22 - 3.0 x_13 * x_23 - 1.0 x_13 * x_25 - 12.0 x_13 * x_26 + 17.5 x_13 * x_28 - 14.0 x_13 * x_29 - 18.0 x_13 * x_30 - 17.5 x_13 * x_31 - 17.5 x_13 * x_33 - 9.0 x_13 * x_35 - 12.5 x_13 * x_37 + 9.0 x_13 * x_38 - 12.5 x_13 * x_39 - 2.5 x_13 * x_40 - 18.0 x_14 * x_2 + 21.0 x_14 * x_5 - 20.5 x_14 * x_6 - 23.0 x_14 * x_8 + 2.0 x_14 * x_14 + 17.0 x_14 * x_15 - 15.5 x_14 * x_16 + 21.0 x_14 * x_17 + 11.5 x_14 * x_18 - 2.5 x_14 * x_19 - 8.5 x_14 * x_20 - 2.5 x_14 * x_24 - 14.0 x_14 * x_25 + 17.5 x_14 * x_26 - 6.5 x_14 * x_28 + 22.0 x_14 * x_31 + 15.5 x_14 * x_33 - 18.0 x_14 * x_36 + 16.5 x_14 * x_39 - 18.0 x_14 * x_40 + 20.5 x_15 * x_2 + 14.5 x_15 * x_3 - 7.5 x_15 * x_4 - 18.0 x_15 * x_8 + 4.5 x_15 * x_10 - 15.0 x_15 * x_11 + 17.0 x_15 * x_14 + 20.0 x_15 * x_15 - 5.0 x_15 * x_17 - 20.0 x_15 * x_18 + 15.0 x_15 * x_19 + 17.0 x_15 * x_20 - 15.5 x_15 * x_21 + 9.0 x_15 * x_22 + 4.5 x_15 * x_24 - 17.5 x_15 * x_25 - 8.0 x_15 * x_26 + 22.0 x_15 * x_27 + 0.5 x_15 * x_28 - 2.0 x_15 * x_32 - 17.5 x_15 * x_34 - 7.0 x_16 * x_2 + 14.0 x_16 * x_3 - 6.0 x_16 * x_7 - 15.0 x_16 * x_8 + 0.5 x_16 * x_10 - 1.5 x_16 * x_11 + 12.5 x_16 * x_12 - 23.5 x_16 * x_13 - 15.5 x_16 * x_14 - 22.0 x_16 * x_18 - 11.0 x_16 * x_19 - 9.5 x_16 * x_21 - 8.0 x_16 * x_23 - 24.0 x_16 * x_24 - 21.5 x_16 * x_26 - 20.0 x_16 * x_27 - 17.5 x_16 * x_32 - 5.5 x_16 * x_33 + 0.5 x_16 * x_34 + 6.5 x_16 * x_35 + 23.0 x_16 * x_36 - 19.0 x_16 * x_37 - 4.0 x_16 * x_38 - 1.0 x_16 * x_40 - 17.0 x_17 * x_6 - 23.5 x_17 * x_9 - 8.0 x_17 * x_13 + 21.0 x_17 * x_14 - 5.0 x_17 * x_15 - 22.0 x_17 * x_17 + 5.0 x_17 * x_20 + 21.5 x_17 * x_21 + 14.0 x_17 * x_22 + 12.5 x_17 * x_23 + 17.5 x_17 * x_24 - 4.0 x_17 * x_28 - 6.5 x_17 * x_32 - 10.5 x_17 * x_33 - 19.0 x_17 * x_34 + 12.0 x_17 * x_37 - 4.5 x_17 * x_38 - 18.5 x_17 * x_40 + 1.5 x_18 * x_3 - 0.5 x_18 * x_4 - 14.5 x_18 * x_6 - 23.0 x_18 * x_7 - 24.5 x_18 * x_9 + 11.5 x_18 * x_14 - 20.0 x_18 * x_15 - 22.0 x_18 * x_16 + 4.5 x_18 * x_18 + 6.5 x_18 * x_19 - 23.5 x_18 * x_21 - 14.0 x_18 * x_22 - 16.0 x_18 * x_25 + 23.5 x_18 * x_27 - 18.5 x_18 * x_29 - 22.0 x_18 * x_30 + 23.0 x_18 * x_33 + 3.0 x_18 * x_34 - 6.5 x_18 * x_36 + 12.0 x_18 * x_37 + 16.5 x_18 * x_39 + 9.0 x_19 * x_1 + 1.5 x_19 * x_3 - 20.0 x_19 * x_5 + 5.5 x_19 * x_6 + 14.0 x_19 * x_7 + 8.0 x_19 * x_9 - 14.0 x_19 * x_10 - 18.5 x_19 * x_12 - 10.5 x_19 * x_13 - 2.5 x_19 * x_14 + 15.0 x_19 * x_15 - 11.0 x_19 * x_16 + 6.5 x_19 * x_18 + 16.0 x_19 * x_19 + 1.0 x_19 * x_20 - 15.0 x_19 * x_22 + 3.0 x_19 * x_23 - 13.0 x_19 * x_24 + 6.0 x_19 * x_25 - 13.5 x_19 * x_26 - 15.5 x_19 * x_29 + 2.5 x_19 * x_30 + 6.0 x_19 * x_34 + 23.5 x_19 * x_35 - 5.0 x_19 * x_36 - 3.5 x_19 * x_39 + 18.5 x_20 * x_1 - 23.5 x_20 * x_5 + 8.5 x_20 * x_6 + 20.5 x_20 * x_7 + 12.5 x_20 * x_9 - 4.5 x_20 * x_10 - 3.5 x_20 * x_13 - 8.5 x_20 * x_14 + 17.0 x_20 * x_15 + 5.0 x_20 * x_17 + 1.0 x_20 * x_19 - 24.0 x_20 * x_20 - 14.0 x_20 * x_21 - 24.0 x_20 * x_22 + 17.0 x_20 * x_23 + 24.5 x_20 * x_24 + 19.0 x_20 * x_25 + 17.5 x_20 * x_29 - 23.5 x_20 * x_30 + 20.5 x_20 * x_32 - 3.5 x_20 * x_35 - 1.0 x_20 * x_37 - 21.0 x_20 * x_38 + 4.0 x_20 * x_39 - 6.5 x_20 * x_40 + 13.5 x_21 * x_3 - 3.5 x_21 * x_4 + 12.5 x_21 * x_5 + 18.0 x_21 * x_8 - 10.5 x_21 * x_10 - 20.0 x_21 * x_11 + 2.0 x_21 * x_12 - 15.5 x_21 * x_15 - 9.5 x_21 * x_16 + 21.5 x_21 * x_17 - 23.5 x_21 * x_18 - 14.0 x_21 * x_20 + 5.5 x_21 * x_21 - 11.0 x_21 * x_24 - 1.5 x_21 * x_27 + 19.0 x_21 * x_28 + 24.0 x_21 * x_35 - 19.0 x_21 * x_36 + 17.0 x_21 * x_38 + 7.0 x_21 * x_39 + 17.5 x_21 * x_40 + 21.0 x_22 * x_2 + 4.0 x_22 * x_4 - 19.0 x_22 * x_6 - 20.5 x_22 * x_8 + 3.5 x_22 * x_9 + 10.0 x_22 * x_12 + 3.5 x_22 * x_13 + 9.0 x_22 * x_15 + 14.0 x_22 * x_17 - 14.0 x_22 * x_18 - 15.0 x_22 * x_19 - 24.0 x_22 * x_20 - 11.0 x_22 * x_23 - 2.0 x_22 * x_26 - 14.0 x_22 * x_28 + 23.5 x_22 * x_31 + 11.5 x_22 * x_33 - 18.5 x_22 * x_34 - 9.0 x_22 * x_38 - 1.5 x_23 * x_5 + 4.0 x_23 * x_6 - 18.0 x_23 * x_10 + 7.0 x_23 * x_11 - 2.5 x_23 * x_12 - 3.0 x_23 * x_13 - 8.0 x_23 * x_16 + 12.5 x_23 * x_17 + 3.0 x_23 * x_19 + 17.0 x_23 * x_20 - 11.0 x_23 * x_22 + 17.5 x_23 * x_23 + 7.0 x_23 * x_28 + 12.5 x_23 * x_32 - 6.5 x_23 * x_34 - 20.5 x_23 * x_35 + 5.0 x_23 * x_38 - 8.0 x_23 * x_39 + 3.0 x_23 * x_40 - 8.5 x_24 * x_1 - 0.5 x_24 * x_2 + 6.0 x_24 * x_3 + 8.0 x_24 * x_4 - 7.0 x_24 * x_5 - 2.5 x_24 * x_6 - 4.0 x_24 * x_7 + 19.0 x_24 * x_9 - 13.0 x_24 * x_12 - 2.5 x_24 * x_14 + 4.5 x_24 * x_15 - 24.0 x_24 * x_16 + 17.5 x_24 * x_17 - 13.0 x_24 * x_19 + 24.5 x_24 * x_20 - 11.0 x_24 * x_21 - 24.5 x_24 * x_24 + 17.5 x_24 * x_26 - 19.5 x_24 * x_27 - 13.0 x_24 * x_28 + 24.0 x_24 * x_29 - 8.0 x_24 * x_30 + 16.5 x_24 * x_31 - 20.5 x_24 * x_32 + 7.0 x_24 * x_33 + 21.0 x_24 * x_35 + 19.5 x_24 * x_37 - 0.5 x_24 * x_39 + 7.5 x_25 * x_2 - 4.0 x_25 * x_6 - 19.0 x_25 * x_7 + 1.5 x_25 * x_8 + 18.5 x_25 * x_9 + 10.5 x_25 * x_10 - 4.0 x_25 * x_11 + 11.0 x_25 * x_12 - 1.0 x_25 * x_13 - 14.0 x_25 * x_14 - 17.5 x_25 * x_15 - 16.0 x_25 * x_18 + 6.0 x_25 * x_19 + 19.0 x_25 * x_20 - 17.0 x_25 * x_31 + 6.0 x_25 * x_33 + 17.5 x_25 * x_34 + 5.5 x_25 * x_36 + 16.5 x_25 * x_38 - 1.5 x_25 * x_39 + 4.5 x_25 * x_40 - 5.5 x_26 * x_1 + 11.5 x_26 * x_2 + 17.5 x_26 * x_3 + 19.5 x_26 * x_6 - 13.5 x_26 * x_8 + 11.5 x_26 * x_9 + 14.5 x_26 * x_11 - 12.0 x_26 * x_13 + 17.5 x_26 * x_14 - 8.0 x_26 * x_15 - 21.5 x_26 * x_16 - 13.5 x_26 * x_19 - 2.0 x_26 * x_22 + 17.5 x_26 * x_24 - 15.0 x_26 * x_26 + 22.0 x_26 * x_27 - 2.5 x_26 * x_28 + 11.0 x_26 * x_29 - 18.0 x_26 * x_30 + 23.0 x_26 * x_31 + 24.5 x_26 * x_35 - 21.5 x_26 * x_38 + 16.0 x_27 * x_2 - 17.5 x_27 * x_3 + 14.0 x_27 * x_4 + 2.5 x_27 * x_5 + 22.5 x_27 * x_8 + 22.5 x_27 * x_9 - 4.5 x_27 * x_10 + 24.5 x_27 * x_12 + 22.0 x_27 * x_15 - 20.0 x_27 * x_16 + 23.5 x_27 * x_18 - 1.5 x_27 * x_21 - 19.5 x_27 * x_24 + 22.0 x_27 * x_26 + 15.5 x_27 * x_27 - 15.5 x_27 * x_28 + 22.0 x_27 * x_29 - 19.0 x_27 * x_31 - 20.5 x_27 * x_32 - 12.5 x_27 * x_35 + 7.0 x_27 * x_37 - 15.5 x_27 * x_38 - 9.5 x_27 * x_39 - 12.0 x_27 * x_40 + 3.0 x_28 * x_1 - 19.0 x_28 * x_4 + 2.5 x_28 * x_6 - 24.5 x_28 * x_8 - 13.0 x_28 * x_12 + 17.5 x_28 * x_13 - 6.5 x_28 * x_14 + 0.5 x_28 * x_15 - 4.0 x_28 * x_17 + 19.0 x_28 * x_21 - 14.0 x_28 * x_22 + 7.0 x_28 * x_23 - 13.0 x_28 * x_24 - 2.5 x_28 * x_26 - 15.5 x_28 * x_27 - 23.0 x_28 * x_28 + 17.0 x_28 * x_29 - 17.5 x_28 * x_31 + 4.0 x_28 * x_33 + 14.5 x_28 * x_34 + 23.5 x_28 * x_35 - 24.0 x_28 * x_36 - 19.0 x_28 * x_38 - 22.0 x_28 * x_40 - 6.5 x_29 * x_1 + 21.0 x_29 * x_2 - 13.0 x_29 * x_4 - 19.0 x_29 * x_9 + 11.5 x_29 * x_12 - 14.0 x_29 * x_13 - 18.5 x_29 * x_18 - 15.5 x_29 * x_19 + 17.5 x_29 * x_20 + 24.0 x_29 * x_24 + 11.0 x_29 * x_26 + 22.0 x_29 * x_27 + 17.0 x_29 * x_28 - 16.5 x_29 * x_30 + 11.5 x_29 * x_31 + 20.5 x_29 * x_32 + 20.5 x_29 * x_35 - 24.0 x_29 * x_40 - 21.0 x_30 * x_2 + 4.0 x_30 * x_3 - 7.5 x_30 * x_4 + 21.0 x_30 * x_6 - 2.0 x_30 * x_10 - 18.0 x_30 * x_13 - 22.0 x_30 * x_18 + 2.5 x_30 * x_19 - 23.5 x_30 * x_20 - 8.0 x_30 * x_24 - 18.0 x_30 * x_26 - 16.5 x_30 * x_29 + 15.5 x_30 * x_30 - 4.0 x_30 * x_31 + 23.0 x_30 * x_33 - 17.0 x_30 * x_34 - 8.0 x_30 * x_36 + 3.0 x_30 * x_39 - 4.0 x_30 * x_40 - 1.0 x_31 * x_1 + 1.0 x_31 * x_4 - 20.5 x_31 * x_5 - 19.0 x_31 * x_6 - 17.5 x_31 * x_8 - 24.0 x_31 * x_10 - 5.0 x_31 * x_12 - 17.5 x_31 * x_13 + 22.0 x_31 * x_14 + 23.5 x_31 * x_22 + 16.5 x_31 * x_24 - 17.0 x_31 * x_25 + 23.0 x_31 * x_26 - 19.0 x_31 * x_27 - 17.5 x_31 * x_28 + 11.5 x_31 * x_29 - 4.0 x_31 * x_30 - 12.5 x_31 * x_31 - 4.5 x_31 * x_32 - 2.0 x_31 * x_33 + 19.0 x_31 * x_35 - 10.0 x_31 * x_36 - 4.0 x_31 * x_38 - 17.5 x_31 * x_39 - 19.5 x_32 * x_2 - 7.0 x_32 * x_4 - 19.5 x_32 * x_5 + 5.5 x_32 * x_10 - 5.0 x_32 * x_11 - 1.5 x_32 * x_12 - 2.0 x_32 * x_15 - 17.5 x_32 * x_16 - 6.5 x_32 * x_17 + 20.5 x_32 * x_20 + 12.5 x_32 * x_23 - 20.5 x_32 * x_24 - 20.5 x_32 * x_27 + 20.5 x_32 * x_29 - 4.5 x_32 * x_31 - 6.5 x_32 * x_32 + 12.0 x_32 * x_34 + 22.0 x_32 * x_35 - 16.5 x_32 * x_36 - 11.0 x_32 * x_37 + 7.5 x_32 * x_39 - 3.0 x_33 * x_1 - 10.5 x_33 * x_2 - 20.0 x_33 * x_3 + 9.0 x_33 * x_4 - 12.5 x_33 * x_7 - 7.5 x_33 * x_9 + 12.5 x_33 * x_10 - 17.5 x_33 * x_13 + 15.5 x_33 * x_14 - 5.5 x_33 * x_16 - 10.5 x_33 * x_17 + 23.0 x_33 * x_18 + 11.5 x_33 * x_22 + 7.0 x_33 * x_24 + 6.0 x_33 * x_25 + 4.0 x_33 * x_28 + 23.0 x_33 * x_30 - 2.0 x_33 * x_31 + 23.0 x_33 * x_34 + 24.0 x_33 * x_35 - 6.0 x_33 * x_36 + 15.0 x_33 * x_37 - 19.5 x_33 * x_39 + 18.5 x_33 * x_40 + 24.5 x_34 * x_3 - 13.5 x_34 * x_4 - 10.0 x_34 * x_8 - 13.5 x_34 * x_10 + 2.0 x_34 * x_11 + 1.5 x_34 * x_12 - 17.5 x_34 * x_15 + 0.5 x_34 * x_16 - 19.0 x_34 * x_17 + 3.0 x_34 * x_18 + 6.0 x_34 * x_19 - 18.5 x_34 * x_22 - 6.5 x_34 * x_23 + 17.5 x_34 * x_25 + 14.5 x_34 * x_28 - 17.0 x_34 * x_30 + 12.0 x_34 * x_32 + 23.0 x_34 * x_33 - 6.0 x_34 * x_34 - 11.0 x_34 * x_35 + 7.0 x_34 * x_38 + 2.5 x_34 * x_39 + 3.5 x_34 * x_40 + 8.0 x_35 * x_1 - 15.5 x_35 * x_2 + 2.0 x_35 * x_3 + 24.0 x_35 * x_4 + 24.5 x_35 * x_12 - 9.0 x_35 * x_13 + 6.5 x_35 * x_16 + 23.5 x_35 * x_19 - 3.5 x_35 * x_20 + 24.0 x_35 * x_21 - 20.5 x_35 * x_23 + 21.0 x_35 * x_24 + 24.5 x_35 * x_26 - 12.5 x_35 * x_27 + 23.5 x_35 * x_28 + 20.5 x_35 * x_29 + 19.0 x_35 * x_31 + 22.0 x_35 * x_32 + 24.0 x_35 * x_33 - 11.0 x_35 * x_34 - 14.0 x_35 * x_35 - 24.5 x_35 * x_36 + 21.5 x_35 * x_37 + 0.5 x_35 * x_38 + 4.5 x_35 * x_40 + 18.5 x_36 * x_2 + 23.5 x_36 * x_5 - 10.5 x_36 * x_8 + 17.0 x_36 * x_9 - 10.5 x_36 * x_10 - 22.5 x_36 * x_12 - 18.0 x_36 * x_14 + 23.0 x_36 * x_16 - 6.5 x_36 * x_18 - 5.0 x_36 * x_19 - 19.0 x_36 * x_21 + 5.5 x_36 * x_25 - 24.0 x_36 * x_28 - 8.0 x_36 * x_30 - 10.0 x_36 * x_31 - 16.5 x_36 * x_32 - 6.0 x_36 * x_33 - 24.5 x_36 * x_35 + 24.5 x_36 * x_36 + 10.0 x_36 * x_39 + 5.0 x_37 * x_2 + 23.5 x_37 * x_3 - 23.0 x_37 * x_4 + 2.0 x_37 * x_6 + 19.0 x_37 * x_7 + 15.0 x_37 * x_8 + 11.0 x_37 * x_9 - 12.5 x_37 * x_13 - 19.0 x_37 * x_16 + 12.0 x_37 * x_17 + 12.0 x_37 * x_18 - 1.0 x_37 * x_20 + 19.5 x_37 * x_24 + 7.0 x_37 * x_27 - 11.0 x_37 * x_32 + 15.0 x_37 * x_33 + 21.5 x_37 * x_35 + 6.5 x_37 * x_37 - 4.5 x_37 * x_38 - 0.5 x_37 * x_40 + 5.5 x_38 * x_3 + 16.0 x_38 * x_5 - 17.5 x_38 * x_6 - 6.5 x_38 * x_7 - 21.0 x_38 * x_8 + 9.0 x_38 * x_9 - 16.0 x_38 * x_10 - 21.5 x_38 * x_12 + 9.0 x_38 * x_13 - 4.0 x_38 * x_16 - 4.5 x_38 * x_17 - 21.0 x_38 * x_20 + 17.0 x_38 * x_21 - 9.0 x_38 * x_22 + 5.0 x_38 * x_23 + 16.5 x_38 * x_25 - 21.5 x_38 * x_26 - 15.5 x_38 * x_27 - 19.0 x_38 * x_28 - 4.0 x_38 * x_31 + 7.0 x_38 * x_34 + 0.5 x_38 * x_35 - 4.5 x_38 * x_37 - 19.0 x_38 * x_38 - 23.5 x_38 * x_40 + 2.5 x_39 * x_1 - 21.5 x_39 * x_4 - 3.5 x_39 * x_5 - 15.5 x_39 * x_6 - 15.0 x_39 * x_8 + 2.5 x_39 * x_9 + 22.0 x_39 * x_10 + 0.5 x_39 * x_12 - 12.5 x_39 * x_13 + 16.5 x_39 * x_14 + 16.5 x_39 * x_18 - 3.5 x_39 * x_19 + 4.0 x_39 * x_20 + 7.0 x_39 * x_21 - 8.0 x_39 * x_23 - 0.5 x_39 * x_24 - 1.5 x_39 * x_25 - 9.5 x_39 * x_27 + 3.0 x_39 * x_30 - 17.5 x_39 * x_31 + 7.5 x_39 * x_32 - 19.5 x_39 * x_33 + 2.5 x_39 * x_34 + 10.0 x_39 * x_36 - 3.0 x_39 * x_39 - 23.5 x_40 * x_1 + 23.0 x_40 * x_2 - 3.5 x_40 * x_3 - 11.5 x_40 * x_4 + 18.0 x_40 * x_6 + 6.5 x_40 * x_7 + 6.5 x_40 * x_8 - 15.5 x_40 * x_9 + 23.5 x_40 * x_11 + 5.5 x_40 * x_12 - 2.5 x_40 * x_13 - 18.0 x_40 * x_14 - 1.0 x_40 * x_16 - 18.5 x_40 * x_17 - 6.5 x_40 * x_20 + 17.5 x_40 * x_21 + 3.0 x_40 * x_23 + 4.5 x_40 * x_25 - 12.0 x_40 * x_27 - 22.0 x_40 * x_28 - 24.0 x_40 * x_29 - 4.0 x_40 * x_30 + 18.5 x_40 * x_33 + 3.5 x_40 * x_34 + 4.5 x_40 * x_35 - 0.5 x_40 * x_37 - 23.5 x_40 * x_38 - 8.0 x_40 * x_40 ] + 39.0 x_1 + 45.0 x_2 + 0.0 x_3 + 0.0 x_4 + 0.0 x_5 + 0.0 x_6 + 0.0 x_7 + 0.0 x_8 + 45.0 x_9 + 34.0 x_10 + 18.0 x_11 - 20.0 x_12 + 0.0 x_13 - 27.0 x_14 - 15.0 x_15 + 0.0 x_16 + 0.0 x_17 + 0.0 x_18 - 27.0 x_19 - 8.0 x_20 + 37.0 x_21 - 47.0 x_22 - 15.0 x_23 + 0.0 x_24 - 32.0 x_25 + 0.0 x_26 - 23.0 x_27 - 47.0 x_28 + 25.0 x_29 + 40.0 x_30 + 33.0 x_31 - 25.0 x_32 + 47.0 x_33 + 0.0 x_34 - 15.0 x_35 + 0.0 x_36 - 37.0 x_37 + 0.0 x_38 + 14.0 x_39 - 17.0 x_40

Subject To
 e2: [  x_1 * x_1 ] = 0.0
 e3: [  x_1 * x_20 ] = 0.0
 e4: [  x_1 * x_26 ] = 0.0
 e5: [  x_1 * x_31 ] = 0.0
 e6: [  x_1 * x_33 ] = 0.0
 e7: [  x_1 * x_35 ] = 0.0
 e8: [  x_1 * x_40 ] = 0.0
 e9: [  x_2 * x_1 ] = 0.0
 e10: [  x_2 * x_3 ] = 0.0
 e11: [  x_2 * x_7 ] = 0.0
 e12: [  x_2 * x_9 ] = 0.0
 e13: [  x_2 * x_10 ] = 0.0
 e14: [  x_2 * x_14 ] = 0.0
 e15: [  x_2 * x_22 ] = 0.0
 e16: [  x_2 * x_25 ] = 0.0
 e17: [  x_2 * x_35 ] = 0.0
 e18: [  x_2 * x_40 ] = 0.0
 e19: [  x_3 * x_6 ] = 0.0
 e20: [  x_3 * x_15 ] = 0.0
 e21: [  x_3 * x_26 ] = 0.0
 e22: [  x_3 * x_27 ] = 0.0
 e23: [  x_3 * x_33 ] = 0.0
 e24: [  x_3 * x_34 ] = 0.0
 e25: [  x_3 * x_38 ] = 0.0
 e26: [  x_3 * x_40 ] = 0.0
 e27: [  x_4 * x_4 ] = 0.0
 e28: [  x_4 * x_5 ] = 0.0
 e29: [  x_4 * x_18 ] = 0.0
 e30: [  x_4 * x_21 ] = 0.0
 e31: [  x_4 * x_22 ] = 0.0
 e32: [  x_4 * x_24 ] = 0.0
 e33: [  x_4 * x_28 ] = 0.0
 e34: [  x_4 * x_30 ] = 0.0
 e35: [  x_4 * x_31 ] = 0.0
 e36: [  x_4 * x_32 ] = 0.0
 e37: [  x_4 * x_37 ] = 0.0
 e38: [  x_5 * x_4 ] = 0.0
 e39: [  x_5 * x_12 ] = 0.0
 e40: [  x_5 * x_21 ] = 0.0
 e41: [  x_5 * x_23 ] = 0.0
 e42: [  x_5 * x_24 ] = 0.0
 e43: [  x_5 * x_32 ] = 0.0
 e44: [  x_5 * x_36 ] = 0.0
 e45: [  x_6 * x_6 ] = 0.0
 e46: [  x_6 * x_11 ] = 0.0
 e47: [  x_6 * x_14 ] = 0.0
 e48: [  x_6 * x_17 ] = 0.0
 e49: [  x_6 * x_18 ] = 0.0
 e50: [  x_6 * x_30 ] = 0.0
 e51: [  x_6 * x_31 ] = 0.0
 e52: [  x_6 * x_39 ] = 0.0
 e53: [  x_6 * x_40 ] = 0.0
 e54: [  x_7 * x_1 ] = 0.0
 e55: [  x_7 * x_11 ] = 0.0
 e56: [  x_7 * x_18 ] = 0.0
 e57: [  x_7 * x_19 ] = 0.0
 e58: [  x_8 * x_1 ] = 0.0
 e59: [  x_8 * x_4 ] = 0.0
 e60: [  x_8 * x_6 ] = 0.0
 e61: [  x_8 * x_7 ] = 0.0
 e62: [  x_8 * x_15 ] = 0.0
 e63: [  x_8 * x_21 ] = 0.0
 e64: [  x_8 * x_22 ] = 0.0
 e65: [  x_8 * x_25 ] = 0.0
 e66: [  x_8 * x_27 ] = 0.0
 e67: [  x_8 * x_31 ] = 0.0
 e68: [  x_8 * x_34 ] = 0.0
 e69: [  x_8 * x_37 ] = 0.0
 e70: [  x_8 * x_38 ] = 0.0
 e71: [  x_9 * x_1 ] = 0.0
 e72: [  x_9 * x_27 ] = 0.0
 e73: [  x_9 * x_33 ] = 0.0
 e74: [  x_9 * x_38 ] = 0.0
 e75: [  x_10 * x_12 ] = 0.0
 e76: [  x_10 * x_16 ] = 0.0
 e77: [  x_10 * x_20 ] = 0.0
 e78: [  x_10 * x_25 ] = 0.0
 e79: [  x_10 * x_27 ] = 0.0
 e80: [  x_10 * x_30 ] = 0.0
 e81: [  x_10 * x_31 ] = 0.0
 e82: [  x_10 * x_34 ] = 0.0
 e83: [  x_11 * x_4 ] = 0.0
 e84: [  x_11 * x_5 ] = 0.0
 e85: [  x_11 * x_6 ] = 0.0
 e86: [  x_11 * x_7 ] = 0.0
 e87: [  x_11 * x_8 ] = 0.0
 e88: [  x_11 * x_10 ] = 0.0
 e89: [  x_11 * x_15 ] = 0.0
 e90: [  x_11 * x_16 ] = 0.0
 e91: [  x_11 * x_21 ] = 0.0
 e92: [  x_11 * x_23 ] = 0.0
 e93: [  x_11 * x_25 ] = 0.0
 e94: [  x_11 * x_26 ] = 0.0
 e95: [  x_11 * x_34 ] = 0.0
 e96: [  x_11 * x_40 ] = 0.0
 e97: [  x_12 * x_2 ] = 0.0
 e98: [  x_12 * x_5 ] = 0.0
 e99: [  x_12 * x_22 ] = 0.0
 e100: [  x_12 * x_28 ] = 0.0
 e101: [  x_12 * x_31 ] = 0.0
 e102: [  x_12 * x_34 ] = 0.0
 e103: [  x_12 * x_35 ] = 0.0
 e104: [  x_12 * x_38 ] = 0.0
 e105: [  x_12 * x_40 ] = 0.0
 e106: [  x_13 * x_1 ] = 0.0
 e107: [  x_13 * x_2 ] = 0.0
 e108: [  x_13 * x_4 ] = 0.0
 e109: [  x_13 * x_17 ] = 0.0
 e110: [  x_13 * x_19 ] = 0.0
 e111: [  x_13 * x_20 ] = 0.0
 e112: [  x_13 * x_25 ] = 0.0
 e113: [  x_13 * x_26 ] = 0.0
 e114: [  x_13 * x_28 ] = 0.0
 e115: [  x_13 * x_33 ] = 0.0
 e116: [  x_13 * x_35 ] = 0.0
 e117: [  x_13 * x_39 ] = 0.0
 e118: [  x_14 * x_2 ] = 0.0
 e119: [  x_14 * x_15 ] = 0.0
 e120: [  x_14 * x_16 ] = 0.0
 e121: [  x_14 * x_17 ] = 0.0
 e122: [  x_14 * x_24 ] = 0.0
 e123: [  x_15 * x_8 ] = 0.0
 e124: [  x_15 * x_14 ] = 0.0
 e125: [  x_15 * x_20 ] = 0.0
 e126: [  x_15 * x_21 ] = 0.0
 e127: [  x_15 * x_22 ] = 0.0
 e128: [  x_15 * x_26 ] = 0.0
 e129: [  x_15 * x_28 ] = 0.0
 e130: [  x_15 * x_34 ] = 0.0
 e131: [  x_16 * x_2 ] = 0.0
 e132: [  x_16 * x_7 ] = 0.0
 e133: [  x_16 * x_8 ] = 0.0
 e134: [  x_16 * x_11 ] = 0.0
 e135: [  x_16 * x_12 ] = 0.0
 e136: [  x_16 * x_18 ] = 0.0
 e137: [  x_16 * x_21 ] = 0.0
 e138: [  x_16 * x_23 ] = 0.0
 e139: [  x_16 * x_24 ] = 0.0
 e140: [  x_16 * x_32 ] = 0.0
 e141: [  x_16 * x_34 ] = 0.0
 e142: [  x_16 * x_36 ] = 0.0
 e143: [  x_16 * x_37 ] = 0.0
 e144: [  x_16 * x_40 ] = 0.0
 e145: [  x_17 * x_9 ] = 0.0
 e146: [  x_17 * x_13 ] = 0.0
 e147: [  x_17 * x_20 ] = 0.0
 e148: [  x_17 * x_21 ] = 0.0
 e149: [  x_17 * x_22 ] = 0.0
 e150: [  x_17 * x_32 ] = 0.0
 e151: [  x_17 * x_33 ] = 0.0
 e152: [  x_17 * x_34 ] = 0.0
 e153: [  x_17 * x_37 ] = 0.0
 e154: [  x_17 * x_40 ] = 0.0
 e155: [  x_18 * x_3 ] = 0.0
 e156: [  x_18 * x_4 ] = 0.0
 e157: [  x_18 * x_7 ] = 0.0
 e158: [  x_18 * x_9 ] = 0.0
 e159: [  x_18 * x_14 ] = 0.0
 e160: [  x_18 * x_15 ] = 0.0
 e161: [  x_18 * x_16 ] = 0.0
 e162: [  x_18 * x_18 ] = 0.0
 e163: [  x_18 * x_21 ] = 0.0
 e164: [  x_18 * x_22 ] = 0.0
 e165: [  x_18 * x_27 ] = 0.0
 e166: [  x_18 * x_30 ] = 0.0
 e167: [  x_18 * x_36 ] = 0.0
 e168: [  x_19 * x_5 ] = 0.0
 e169: [  x_19 * x_6 ] = 0.0
 e170: [  x_19 * x_7 ] = 0.0
 e171: [  x_19 * x_13 ] = 0.0
 e172: [  x_19 * x_14 ] = 0.0
 e173: [  x_19 * x_18 ] = 0.0
 e174: [  x_19 * x_26 ] = 0.0
 e175: [  x_20 * x_1 ] = 0.0
 e176: [  x_20 * x_7 ] = 0.0
 e177: [  x_20 * x_9 ] = 0.0
 e178: [  x_20 * x_10 ] = 0.0
 e179: [  x_20 * x_13 ] = 0.0
 e180: [  x_20 * x_20 ] = 0.0
 e181: [  x_20 * x_22 ] = 0.0
 e182: [  x_20 * x_25 ] = 0.0
 e183: [  x_20 * x_37 ] = 0.0
 e184: [  x_21 * x_8 ] = 0.0
 e185: [  x_21 * x_27 ] = 0.0
 e186: [  x_21 * x_36 ] = 0.0
 e187: [  x_21 * x_38 ] = 0.0
 e188: [  x_21 * x_39 ] = 0.0
 e189: [  x_21 * x_40 ] = 0.0
 e190: [  x_22 * x_8 ] = 0.0
 e191: [  x_22 * x_9 ] = 0.0
 e192: [  x_22 * x_12 ] = 0.0
 e193: [  x_22 * x_15 ] = 0.0
 e194: [  x_22 * x_17 ] = 0.0
 e195: [  x_22 * x_19 ] = 0.0
 e196: [  x_22 * x_23 ] = 0.0
 e197: [  x_22 * x_26 ] = 0.0
 e198: [  x_22 * x_28 ] = 0.0
 e199: [  x_22 * x_34 ] = 0.0
 e200: [  x_23 * x_11 ] = 0.0
 e201: [  x_23 * x_16 ] = 0.0
 e202: [  x_23 * x_20 ] = 0.0
 e203: [  x_23 * x_22 ] = 0.0
 e204: [  x_23 * x_28 ] = 0.0
 e205: [  x_23 * x_34 ] = 0.0
 e206: [  x_23 * x_35 ] = 0.0
 e207: [  x_24 * x_6 ] = 0.0
 e208: [  x_24 * x_12 ] = 0.0
 e209: [  x_24 * x_15 ] = 0.0
 e210: [  x_24 * x_19 ] = 0.0
 e211: [  x_24 * x_20 ] = 0.0
 e212: [  x_24 * x_29 ] = 0.0
 e213: [  x_24 * x_32 ] = 0.0
 e214: [  x_24 * x_33 ] = 0.0
 e215: [  x_25 * x_2 ] = 0.0
 e216: [  x_25 * x_6 ] = 0.0
 e217: [  x_25 * x_7 ] = 0.0
 e218: [  x_25 * x_13 ] = 0.0
 e219: [  x_25 * x_15 ] = 0.0
 e220: [  x_25 * x_19 ] = 0.0
 e221: [  x_25 * x_20 ] = 0.0
 e222: [  x_25 * x_31 ] = 0.0
 e223: [  x_25 * x_38 ] = 0.0
 e224: [  x_25 * x_39 ] = 0.0
 e225: [  x_26 * x_8 ] = 0.0
 e226: [  x_26 * x_15 ] = 0.0
 e227: [  x_26 * x_16 ] = 0.0
 e228: [  x_26 * x_19 ] = 0.0
 e229: [  x_26 * x_27 ] = 0.0
 e230: [  x_26 * x_29 ] = 0.0
 e231: [  x_26 * x_30 ] = 0.0
 e232: [  x_26 * x_38 ] = 0.0
 e233: [  x_27 * x_4 ] = 0.0
 e234: [  x_27 * x_5 ] = 0.0
 e235: [  x_27 * x_10 ] = 0.0
 e236: [  x_27 * x_12 ] = 0.0
 e237: [  x_27 * x_15 ] = 0.0
 e238: [  x_27 * x_28 ] = 0.0
 e239: [  x_27 * x_31 ] = 0.0
 e240: [  x_27 * x_35 ] = 0.0
 e241: [  x_27 * x_39 ] = 0.0
 e242: [  x_27 * x_40 ] = 0.0
 e243: [  x_28 * x_21 ] = 0.0
 e244: [  x_28 * x_27 ] = 0.0
 e245: [  x_28 * x_34 ] = 0.0
 e246: [  x_28 * x_35 ] = 0.0
 e247: [  x_28 * x_36 ] = 0.0
 e248: [  x_29 * x_1 ] = 0.0
 e249: [  x_29 * x_2 ] = 0.0
 e250: [  x_29 * x_4 ] = 0.0
 e251: [  x_29 * x_13 ] = 0.0
 e252: [  x_29 * x_18 ] = 0.0
 e253: [  x_29 * x_19 ] = 0.0
 e254: [  x_29 * x_20 ] = 0.0
 e255: [  x_29 * x_27 ] = 0.0
 e256: [  x_29 * x_30 ] = 0.0
 e257: [  x_29 * x_35 ] = 0.0
 e258: [  x_30 * x_3 ] = 0.0
 e259: [  x_30 * x_4 ] = 0.0
 e260: [  x_30 * x_10 ] = 0.0
 e261: [  x_30 * x_31 ] = 0.0
 e262: [  x_30 * x_40 ] = 0.0
 e263: [  x_31 * x_12 ] = 0.0
 e264: [  x_31 * x_13 ] = 0.0
 e265: [  x_31 * x_14 ] = 0.0
 e266: [  x_31 * x_24 ] = 0.0
 e267: [  x_31 * x_28 ] = 0.0
 e268: [  x_31 * x_29 ] = 0.0
 e269: [  x_31 * x_33 ] = 0.0
 e270: [  x_31 * x_36 ] = 0.0
 e271: [  x_31 * x_38 ] = 0.0
 e272: [  x_31 * x_39 ] = 0.0
 e273: [  x_32 * x_4 ] = 0.0
 e274: [  x_32 * x_11 ] = 0.0
 e275: [  x_32 * x_20 ] = 0.0
 e276: [  x_32 * x_23 ] = 0.0
 e277: [  x_32 * x_27 ] = 0.0
 e278: [  x_32 * x_29 ] = 0.0
 e279: [  x_32 * x_31 ] = 0.0
 e280: [  x_33 * x_2 ] = 0.0
 e281: [  x_33 * x_7 ] = 0.0
 e282: [  x_33 * x_10 ] = 0.0
 e283: [  x_33 * x_14 ] = 0.0
 e284: [  x_33 * x_17 ] = 0.0
 e285: [  x_33 * x_18 ] = 0.0
 e286: [  x_33 * x_22 ] = 0.0
 e287: [  x_33 * x_30 ] = 0.0
 e288: [  x_33 * x_31 ] = 0.0
 e289: [  x_33 * x_35 ] = 0.0
 e290: [  x_34 * x_3 ] = 0.0
 e291: [  x_34 * x_4 ] = 0.0
 e292: [  x_34 * x_8 ] = 0.0
 e293: [  x_34 * x_11 ] = 0.0
 e294: [  x_34 * x_16 ] = 0.0
 e295: [  x_34 * x_18 ] = 0.0
 e296: [  x_34 * x_28 ] = 0.0
 e297: [  x_34 * x_30 ] = 0.0
 e298: [  x_34 * x_39 ] = 0.0
 e299: [  x_35 * x_13 ] = 0.0
 e300: [  x_35 * x_21 ] = 0.0
 e301: [  x_35 * x_23 ] = 0.0
 e302: [  x_35 * x_31 ] = 0.0
 e303: [  x_35 * x_33 ] = 0.0
 e304: [  x_35 * x_34 ] = 0.0
 e305: [  x_35 * x_35 ] = 0.0
 e306: [  x_35 * x_36 ] = 0.0
 e307: [  x_35 * x_37 ] = 0.0
 e308: [  x_36 * x_8 ] = 0.0
 e309: [  x_36 * x_9 ] = 0.0
 e310: [  x_36 * x_18 ] = 0.0
 e311: [  x_36 * x_19 ] = 0.0
 e312: [  x_36 * x_25 ] = 0.0
 e313: [  x_36 * x_31 ] = 0.0
 e314: [  x_36 * x_33 ] = 0.0
 e315: [  x_36 * x_39 ] = 0.0
 e316: [  x_37 * x_3 ] = 0.0
 e317: [  x_37 * x_16 ] = 0.0
 e318: [  x_37 * x_18 ] = 0.0
 e319: [  x_37 * x_24 ] = 0.0
 e320: [  x_37 * x_27 ] = 0.0
 e321: [  x_38 * x_7 ] = 0.0
 e322: [  x_38 * x_12 ] = 0.0
 e323: [  x_38 * x_17 ] = 0.0
 e324: [  x_38 * x_20 ] = 0.0
 e325: [  x_38 * x_21 ] = 0.0
 e326: [  x_38 * x_23 ] = 0.0
 e327: [  x_38 * x_25 ] = 0.0
 e328: [  x_38 * x_26 ] = 0.0
 e329: [  x_38 * x_35 ] = 0.0
 e330: [  x_38 * x_37 ] = 0.0
 e331: [  x_38 * x_40 ] = 0.0
 e332: [  x_39 * x_1 ] = 0.0
 e333: [  x_39 * x_4 ] = 0.0
 e334: [  x_39 * x_6 ] = 0.0
 e335: [  x_39 * x_12 ] = 0.0
 e336: [  x_39 * x_13 ] = 0.0
 e337: [  x_39 * x_18 ] = 0.0
 e338: [  x_39 * x_21 ] = 0.0
 e339: [  x_39 * x_24 ] = 0.0
 e340: [  x_39 * x_27 ] = 0.0
 e341: [  x_39 * x_31 ] = 0.0
 e342: [  x_39 * x_34 ] = 0.0
 e343: [  x_40 * x_11 ] = 0.0
 e344: [  x_40 * x_17 ] = 0.0
 e345: [  x_40 * x_21 ] = 0.0

Bounds
 x_1 <= 1.0
 x_2 <= 1.0
 x_3 <= 1.0
 x_4 <= 1.0
 x_5 <= 1.0
 x_6 <= 1.0
 x_7 <= 1.0
 x_8 <= 1.0
 x_9 <= 1.0
 x_10 <= 1.0
 x_11 <= 1.0
 x_12 <= 1.0
 x_13 <= 1.0
 x_14 <= 1.0
 x_15 <= 1.0
 x_16 <= 1.0
 x_17 <= 1.0
 x_18 <= 1.0
 x_19 <= 1.0
 x_20 <= 1.0
 x_21 <= 1.0
 x_22 <= 1.0
 x_23 <= 1.0
 x_24 <= 1.0
 x_25 <= 1.0
 x_26 <= 1.0
 x_27 <= 1.0
 x_28 <= 1.0
 x_29 <= 1.0
 x_30 <= 1.0
 x_31 <= 1.0
 x_32 <= 1.0
 x_33 <= 1.0
 x_34 <= 1.0
 x_35 <= 1.0
 x_36 <= 1.0
 x_37 <= 1.0
 x_38 <= 1.0
 x_39 <= 1.0
 x_40 <= 1.0

End